w = 16;

n = 10;

r2 = array1d(1..2, [3, 3]);

r3 = array1d(1..2, [3, 4]);

r4 = array1d(1..2, [3, 5]);

r5 = array1d(1..2, [3, 6]);

r6 = array1d(1..2, [3, 7]);

r7 = array1d(1..2, [3, 8]);

r8 = array1d(1..2, [3, 10]);

r9 = array1d(1..2, [3, 12]);

r10 = array1d(1..2, [4, 7]);

r11 = array1d(1..2, [7, 9]);

